60519
59,67,164,228,524,529,578,713,862,928,1061,1175,1189,1329,1512,1530,1572,1637,1766,1865,1890,1927,2064,2094,2138,2244,2247,2364,2384,2498,2560,2604,2651,2683,2781,2914,3071,3410,3571,3926,3963,4034,4114,4215,4526,4539,4644,4688,4909,5030,5120,5340,5360,5426,5604,5612,5690,5735,5777,5814,5990,6004,6045,6118,6134,6321,6430,6542,6773,6809,6829,6843,7124,7336,7418,7491,7625,7964,8005,8022,8032,8164,8199,8262,8353,8399,8429,8547,8567,8608,8730,8771,8872,8880,9024,9032,9206,9385,9405,9433,9477,9535,9595,9603,9690,9734,9748,9780,9951,9997
